c uprop, v00.0, 
c reading from data/prog897.c.cnf
c done reading: 0.003021
p cnf 127 539
-75 -95 0
-79 -95 0
75 79 95 0
75 79 -102 0
-75 -79 -102 0
-75 79 102 0
75 -79 102 0
-83 95 0
-83 -85 0
83 85 -95 0
85 -91 -95 0
-85 -91 95 0
85 91 95 0
-85 91 -95 0
83 -94 0
-94 -96 0
-83 94 96 0
-83 96 -99 0
83 -96 -99 0
83 96 99 0
-83 -96 99 0
94 -100 0
-100 -104 0
-94 100 104 0
-78 -94 104 0
-78 94 -104 0
78 94 104 0
78 -94 -104 0
-73 100 0
-73 -81 0
73 81 -100 0
-72 81 -100 0
-72 -81 100 0
72 81 100 0
72 -81 -100 0
-70 73 0
-70 -88 0
70 -73 88 0
-69 -73 88 0
-69 73 -88 0
69 73 88 0
69 -73 -88 0
-67 70 0
-67 -92 0
67 -70 92 0
-66 -70 92 0
-66 70 -92 0
66 70 92 0
66 -70 -92 0
-64 85 0
-64 75 0
64 -75 -85 0
-63 -75 -85 0
-63 75 85 0
63 75 -85 0
63 -75 85 0
62 -79 -96 0
62 -64 -96 0
62 -64 -79 0
-62 79 96 0
-62 64 96 0
-62 64 79 0
-61 -62 96 0
-61 -62 79 0
-61 -62 64 0
61 62 -96 0
61 62 -79 0
61 62 -64 0
61 -64 -79 -96 0
-61 64 79 96 0
60 -85 -104 0
60 -62 -104 0
60 -62 -85 0
-60 85 104 0
-60 62 104 0
-60 62 85 0
-59 -60 104 0
-59 -60 85 0
-59 -60 62 0
59 60 -104 0
59 60 -85 0
59 60 -62 0
59 -62 -85 -104 0
-59 62 85 104 0
58 -81 -96 0
58 -60 -81 0
58 -60 -96 0
-58 81 96 0
-58 60 81 0
-58 60 96 0
-58 81 -106 0
-58 96 -106 0
-58 60 -106 0
58 -81 106 0
58 -96 106 0
58 -60 106 0
-60 -81 -96 106 0
60 81 96 -106 0
-88 -104 107 0
-58 -88 107 0
-58 -104 107 0
88 104 -107 0
58 88 -107 0
58 104 -107 0
88 -107 -108 0
104 -107 -108 0
58 -107 -108 0
-88 107 108 0
-104 107 108 0
-58 107 108 0
-58 -88 -104 108 0
58 88 104 -108 0
-81 -92 109 0
-92 -107 109 0
-81 -107 109 0
81 92 -109 0
92 107 -109 0
81 107 -109 0
92 -109 -110 0
81 -109 -110 0
107 -109 -110 0
-92 109 110 0
-81 109 110 0
-107 109 110 0
-81 -92 -107 110 0
81 92 107 -110 0
88 -111 0
109 -111 0
-88 -109 111 0
-76 -88 -109 0
-76 88 109 0
76 -88 109 0
76 88 -109 0
-80 92 0
-80 111 0
80 -92 -111 0
-86 -92 -111 0
-86 92 111 0
86 -92 111 0
86 92 -111 0
-75 -97 0
-79 -97 0
75 79 97 0
75 79 -105 0
-75 -79 -105 0
-75 79 105 0
75 -79 105 0
-82 97 0
-63 -82 0
63 82 -97 0
63 -89 -97 0
-63 -89 97 0
63 89 97 0
-63 89 -97 0
82 -93 0
-61 -93 0
61 -82 93 0
61 -82 -112 0
-61 82 -112 0
61 82 112 0
-61 -82 112 0
93 -113 0
-59 -113 0
59 -93 113 0
59 -93 -115 0
-59 93 -115 0
59 93 115 0
-59 -93 115 0
113 -116 0
-106 -116 0
106 -113 116 0
106 -113 -117 0
-106 113 -117 0
106 113 117 0
-106 -113 117 0
116 -118 0
-108 -118 0
108 -116 118 0
108 -116 -119 0
-108 116 -119 0
108 116 119 0
-108 -116 119 0
118 -120 0
-110 -120 0
110 -118 120 0
110 -118 -121 0
-110 118 -121 0
110 118 121 0
-110 -118 121 0
120 -122 0
-76 -122 0
76 -120 122 0
76 -120 -123 0
-76 120 -123 0
76 120 123 0
-76 -120 123 0
122 -124 0
-86 -124 0
86 -122 124 0
86 -122 -125 0
-86 122 -125 0
86 122 125 0
-86 -122 125 0
124 -126 0
-80 -126 0
80 -124 126 0
80 -124 -127 0
-80 124 -127 0
80 124 127 0
-80 -124 127 0
-57 -114 0
57 114 0
-54 -56 0
54 56 0
-52 -53 0
52 53 0
-49 -51 0
49 51 0
-47 -48 0
47 48 0
-44 -46 0
44 46 0
-42 -43 0
42 43 0
-41 53 0
41 -53 0
-40 -53 0
40 53 0
39 -51 -114 0
39 -41 -51 0
39 -41 -114 0
-39 51 114 0
-39 41 51 0
-39 41 114 0
-38 -39 51 0
-38 -39 114 0
-38 -39 41 0
38 39 -51 0
38 39 -114 0
38 39 -41 0
38 -41 -51 -114 0
-38 41 51 114 0
37 -48 -56 0
37 -39 -48 0
37 -39 -56 0
-37 48 56 0
-37 39 48 0
-37 39 56 0
-36 -37 48 0
-36 -37 56 0
-36 -37 39 0
36 37 -48 0
36 37 -56 0
36 37 -39 0
36 -39 -48 -56 0
-36 39 48 56 0
35 -46 -53 0
35 -37 -46 0
35 -37 -53 0
-35 46 53 0
-35 37 46 0
-35 37 53 0
-34 -35 46 0
-34 -35 53 0
-34 -35 37 0
34 35 -46 0
34 35 -53 0
34 35 -37 0
34 -37 -46 -53 0
-34 37 46 53 0
33 -43 -51 0
33 -35 -43 0
33 -35 -51 0
-33 43 51 0
-33 35 43 0
-33 35 51 0
-32 -33 43 0
-32 -33 51 0
-32 -33 35 0
32 33 -43 0
32 33 -51 0
32 33 -35 0
32 -35 -43 -51 0
-32 35 43 51 0
-31 48 0
-31 33 0
31 -33 -48 0
-30 -33 -48 0
-30 33 48 0
30 33 -48 0
30 -33 48 0
-29 46 0
-29 31 0
29 -31 -46 0
-28 -31 -46 0
-28 31 46 0
28 31 -46 0
28 -31 46 0
-27 43 0
-27 29 0
27 -29 -43 0
-26 -29 -43 0
-26 29 43 0
26 29 -43 0
26 -29 43 0
-25 38 0
25 -38 0
-24 -38 0
24 38 0
23 -36 -114 0
23 -25 -36 0
23 -25 -114 0
-23 36 114 0
-23 25 36 0
-23 25 114 0
-22 -23 36 0
-22 -23 114 0
-22 -23 25 0
22 23 -36 0
22 23 -114 0
22 23 -25 0
22 -25 -36 -114 0
-22 25 36 114 0
21 -34 -56 0
21 -23 -34 0
21 -23 -56 0
-21 34 56 0
-21 23 34 0
-21 23 56 0
-20 -21 34 0
-20 -21 56 0
-20 -21 23 0
20 21 -34 0
20 21 -56 0
20 21 -23 0
20 -23 -34 -56 0
-20 23 34 56 0
19 -32 -53 0
19 -21 -32 0
19 -21 -53 0
-19 32 53 0
-19 21 32 0
-19 21 53 0
-18 -19 32 0
-18 -19 53 0
-18 -19 21 0
18 19 -32 0
18 19 -53 0
18 19 -21 0
18 -21 -32 -53 0
-18 21 32 53 0
17 -30 -51 0
17 -19 -30 0
17 -19 -51 0
-17 30 51 0
-17 19 30 0
-17 19 51 0
-16 -17 30 0
-16 -17 51 0
-16 -17 19 0
16 17 -30 0
16 17 -51 0
16 17 -19 0
16 -19 -30 -51 0
-16 19 30 51 0
15 -28 -48 0
15 -17 -28 0
15 -17 -48 0
-15 28 48 0
-15 17 28 0
-15 17 48 0
-14 -15 28 0
-14 -15 48 0
-14 -15 17 0
14 15 -28 0
14 15 -48 0
14 15 -17 0
14 -17 -28 -48 0
-14 17 28 48 0
13 -26 -46 0
13 -15 -26 0
13 -15 -46 0
-13 26 46 0
-13 15 26 0
-13 15 46 0
-12 -13 26 0
-12 -13 46 0
-12 -13 15 0
12 13 -26 0
12 13 -46 0
12 13 -15 0
12 -15 -26 -46 0
-12 15 26 46 0
11 -27 -43 0
11 -13 -27 0
11 -13 -43 0
-11 27 43 0
-11 13 27 0
-11 13 43 0
-11 27 -74 0
-11 43 -74 0
-11 13 -74 0
11 -27 74 0
11 -43 74 0
11 -13 74 0
-13 -27 -43 74 0
13 27 43 -74 0
-84 -114 0
84 114 0
-56 -103 0
56 103 0
-40 -87 0
40 87 0
-10 -24 0
10 24 0
-22 -55 0
22 55 0
-20 -50 0
20 50 0
-18 -45 0
18 45 0
-9 -16 0
9 16 0
-8 -14 0
8 14 0
-7 -12 0
7 12 0
-6 -74 0
6 74 0
-5 -11 0
5 11 0
-4 75 0
-4 114 0
4 -75 -114 0
-75 -114 0
75 114 0
3 -56 -79 0
3 -4 -79 0
3 -4 -56 0
-3 56 79 0
-3 4 79 0
-3 4 56 0
3 -79 0
3 -56 0
3 -4 0
-4 -56 -79 0
2 -40 -63 0
2 -3 -63 0
2 -3 -40 0
-2 40 63 0
-2 3 63 0
-2 3 40 0
-2 63 0
-2 40 0
-2 3 0
3 40 63 0
1 -24 -61 0
1 -2 -61 0
1 -2 -24 0
-1 24 61 0
-1 2 61 0
-1 2 24 0
-1 61 0
-1 24 0
-1 2 0
2 24 61 0
-22 -59 101 0
-1 -59 101 0
-1 -22 101 0
22 59 -101 0
1 59 -101 0
1 22 -101 0
-59 101 0
-22 101 0
-1 101 0
-1 -22 -59 0
-20 90 -106 0
90 -101 -106 0
-20 90 -101 0
20 -90 106 0
-90 101 106 0
20 -90 101 0
90 -106 0
-20 90 0
90 -101 0
-20 -101 -106 0
-18 98 -108 0
-90 98 -108 0
-18 -90 98 0
18 -98 108 0
90 -98 108 0
18 90 -98 0
98 -108 0
-18 98 0
-90 98 0
-18 -90 -108 0
-16 77 -110 0
77 -98 -110 0
-16 77 -98 0
16 -77 110 0
-77 98 110 0
16 -77 98 0
77 -110 0
-16 77 0
77 -98 0
-16 -98 -110 0
-14 71 -76 0
71 -76 -77 0
-14 71 -77 0
14 -71 76 0
-71 76 77 0
14 -71 77 0
71 -76 0
-14 71 0
71 -77 0
-14 -76 -77 0
-12 68 -86 0
68 -71 -86 0
-12 68 -71 0
12 -68 86 0
-68 71 86 0
12 -68 71 0
68 -86 0
-12 68 0
68 -71 0
-12 -71 -86 0
65 -74 -80 0
65 -68 -80 0
65 -68 -74 0
-65 74 80 0
-65 68 80 0
-65 68 74 0
65 -80 0
65 -74 0
65 -68 0
-68 -74 -80 0
-11 -65 0
-11 65 0
11 -65 0
